certificates/rado_a10_c284_N31.cnf
c Rad2 upper bound instance: x1 + 10*x2 - x3 = 284, interval [1,31]
p cnf 31 192
1 7 29 0
-1 -7 -29 0
1 17 30 0
-1 -17 -30 0
1 27 31 0
-1 -27 -31 0
2 8 29 0
-2 -8 -29 0
2 18 30 0
-2 -18 -30 0
2 28 31 0
-2 -28 -31 0
3 9 29 0
-3 -9 -29 0
3 19 30 0
-3 -19 -30 0
3 29 31 0
-3 -29 -31 0
4 10 29 0
-4 -10 -29 0
4 20 30 0
-4 -20 -30 0
4 30 31 0
-4 -30 -31 0
1 5 28 0
-1 -5 -28 0
5 11 29 0
-5 -11 -29 0
5 21 30 0
-5 -21 -30 0
5 31 0
-5 -31 0
2 6 28 0
-2 -6 -28 0
6 12 29 0
-6 -12 -29 0
6 22 30 0
-6 -22 -30 0
3 7 28 0
-3 -7 -28 0
7 13 29 0
-7 -13 -29 0
7 23 30 0
-7 -23 -30 0
4 8 28 0
-4 -8 -28 0
8 14 29 0
-8 -14 -29 0
8 24 30 0
-8 -24 -30 0
5 9 28 0
-5 -9 -28 0
9 15 29 0
-9 -15 -29 0
9 25 30 0
-9 -25 -30 0
6 10 28 0
-6 -10 -28 0
10 16 29 0
-10 -16 -29 0
10 26 30 0
-10 -26 -30 0
7 11 28 0
-7 -11 -28 0
11 17 29 0
-11 -17 -29 0
11 27 30 0
-11 -27 -30 0
8 12 28 0
-8 -12 -28 0
12 18 29 0
-12 -18 -29 0
12 28 30 0
-12 -28 -30 0
9 13 28 0
-9 -13 -28 0
13 19 29 0
-13 -19 -29 0
13 29 30 0
-13 -29 -30 0
10 14 28 0
-10 -14 -28 0
14 20 29 0
-14 -20 -29 0
14 30 0
-14 -30 0
1 15 27 0
-1 -15 -27 0
11 15 28 0
-11 -15 -28 0
15 21 29 0
-15 -21 -29 0
15 30 31 0
-15 -30 -31 0
2 16 27 0
-2 -16 -27 0
12 16 28 0
-12 -16 -28 0
16 22 29 0
-16 -22 -29 0
3 17 27 0
-3 -17 -27 0
13 17 28 0
-13 -17 -28 0
17 23 29 0
-17 -23 -29 0
4 18 27 0
-4 -18 -27 0
14 18 28 0
-14 -18 -28 0
18 24 29 0
-18 -24 -29 0
5 19 27 0
-5 -19 -27 0
15 19 28 0
-15 -19 -28 0
19 25 29 0
-19 -25 -29 0
6 20 27 0
-6 -20 -27 0
16 20 28 0
-16 -20 -28 0
20 26 29 0
-20 -26 -29 0
7 21 27 0
-7 -21 -27 0
17 21 28 0
-17 -21 -28 0
21 27 29 0
-21 -27 -29 0
8 22 27 0
-8 -22 -27 0
18 22 28 0
-18 -22 -28 0
22 28 29 0
-22 -28 -29 0
9 23 27 0
-9 -23 -27 0
19 23 28 0
-19 -23 -28 0
23 29 0
-23 -29 0
10 24 27 0
-10 -24 -27 0
20 24 28 0
-20 -24 -28 0
24 29 30 0
-24 -29 -30 0
1 25 26 0
-1 -25 -26 0
11 25 27 0
-11 -25 -27 0
21 25 28 0
-21 -25 -28 0
25 29 31 0
-25 -29 -31 0
2 26 0
-2 -26 0
12 26 27 0
-12 -26 -27 0
22 26 28 0
-22 -26 -28 0
3 26 27 0
-3 -26 -27 0
13 27 0
-13 -27 0
23 27 28 0
-23 -27 -28 0
4 26 28 0
-4 -26 -28 0
14 27 28 0
-14 -27 -28 0
24 28 0
-24 -28 0
5 26 29 0
-5 -26 -29 0
15 27 29 0
-15 -27 -29 0
25 28 29 0
-25 -28 -29 0
6 26 30 0
-6 -26 -30 0
16 27 30 0
-16 -27 -30 0
26 28 30 0
-26 -28 -30 0
7 26 31 0
-7 -26 -31 0
17 27 31 0
-17 -27 -31 0
27 28 31 0
-27 -28 -31 0
