certificates/rado_a10_c284_N31.drat
-29 -30 -31 0
-30 -31 0
d -15 -30 -31 0
29 -31 0
-31 0
5 0
-29 -15 0
29 30 0
d 13 29 30 0
30 0
-14 0
-21 0
29 0
-13 0
-23 0
-24 0
-11 0
-26 0
-15 0
27 0
28 0
2 0
7 0
-16 0
-19 0
-1 0
-6 0
-9 0
-12 0
-22 0
-25 0
-18 0
-8 0
-3 0
0
